11
0 30 40 32 50 20 22 28 52 19 11 
30 0 11 42 22 34 12 13 23 14 34 
40 11 0 53 18 45 23 23 13 22 45 
32 42 53 0 51 12 31 30 61 43 22 
50 22 18 51 0 47 28 24 14 36 51 
20 34 45 12 47 0 22 24 55 32 11 
22 12 23 31 28 22 0 7 33 16 23 
28 13 23 30 24 24 7 0 31 22 28 
52 23 13 61 14 55 33 31 0 35 57 
19 14 22 43 36 32 16 22 35 0 28 
11 34 45 22 51 11 23 28 57 28 0 
